32      6       
21      17      21      19      15      24      
0       0       0       0       0       0       0       3       2       3       4       
7       0       0       0       8       8       5       3       5       10      15      
5       0       0       0       0       4       6       2       11      22      
8       0       0       3       0       0       0       1       27      
4       0       4       2       0       0       0       3       6       9       13      
6       10      10      0       0       0       9       3       7       8       16      
5       0       4       1       10      0       8       1       17      
6       0       7       0       2       0       10      1       12      
7       4       3       4       3       6       0       2       17      28      
5       7       0       0       0       0       0       2       14      18      
10      7       0       4       5       9       0       3       19      20      21      
6       9       8       0       0       0       0       2       20      24      
1       3       6       0       0       2       7       3       21      26      31      
2       10      6       10      0       3       8       1       21      
9       0       0       0       7       0       0       1       18      
8       6       0       6       0       9       2       1       29      
1       0       0       4       9       0       4       2       25      30      
9       9       0       6       0       0       5       1       31      
10      6       0       7       0       0       3       1       24      
2       0       1       3       0       0       5       1       23      
3       0       6       1       0       2       1       1       27      
10      0       2       0       0       0       3       1       26      
2       2       0       0       6       0       5       1       28      
8       0       3       4       2       7       0       1       31      
10      0       3       0       1       10      8       1       29      
10      0       4       6       7       0       8       1       29      
2       0       1       0       8       0       0       1       30      
9       5       0       0       9       3       9       1       30      
7       0       4       0       0       0       1       1       32      
6       0       0       9       0       4       2       1       32      
8       0       9       10      9       0       0       1       32      
0       0       0       0       0       0       0       0       